<number of tasks>
50

<cycle time>
1000

<order strength>
0.198


<task times>
1 689
2 417
3 381
4 387
5 485
6 566
7 593
8 431
9 490
10 406
11 503
12 587
13 574
14 695
15 520
16 497
17 274
18 643
19 605
20 506
21 496
22 527
23 363
24 276
25 303
26 448
27 535
28 474
29 379
30 655
31 247
32 633
33 536
34 416
35 600
36 330
37 404
38 266
39 569
40 415
41 489
42 586
43 510
44 407
45 553
46 403
47 555
48 421
49 577
50 539

<precedence relations>
1,8
2,10
2,17
3,11
4,9
4,10
6,17
7,12
7,16
8,12
9,14
10,15
10,16
11,13
11,17
12,18
13,19
13,23
13,38
14,20
15,21
15,22
15,25
17,24
17,25
17,46
18,26
19,30
20,31
21,27
21,28
22,29
22,32
26,36
27,33
28,34
29,35
30,37
31,36
32,38
32,39
33,40
34,41
35,42
36,43
36,47
38,47
39,44
39,45
39,46
40,48
41,49
42,50

<end>
